2
1000 6
213
16 1 4
17 1 2
18 1 4
19 1 3
20 1 3
21 1 1
22 1 1
23 1 1
24 1 2
26 1 2
27 1 4
28 1 2
30 1 1
31 1 2
32 1 4
33 1 1
34 1 1
35 1 1
36 1 1
37 1 1
38 1 1
39 1 1
40 1 1
41 1 3
42 1 3
43 1 1
44 1 2
45 1 1
46 1 2
47 1 2
48 1 2
51 1 2
53 1 2
54 1 4
55 1 2
56 1 3
57 1 1
58 1 5
59 1 1
60 1 2
61 1 4
63 1 1
65 1 4
67 1 1
68 1 2
69 1 1
70 1 2
71 1 1
72 1 1
74 1 4
78 1 3
79 1 2
80 1 2
81 1 4
82 1 3
84 1 3
85 1 4
86 1 2
87 1 1
88 1 5
89 1 1
90 1 3
91 1 4
93 1 1
94 1 2
95 1 1
96 1 1
97 1 4
98 1 2
99 1 1
101 1 3
102 1 2
104 1 1
105 1 2
106 1 1
107 1 3
108 1 3
109 1 1
110 1 1
111 1 4
112 1 4
113 1 1
114 1 3
115 1 2
116 1 2
117 1 2
118 1 2
119 1 2
120 1 2
121 1 4
122 1 1
123 1 3
124 1 4
125 1 1
127 1 5
128 1 6
129 1 1
130 1 4
131 1 2
132 1 4
133 1 1
134 1 3
135 1 3
136 1 1
137 1 1
138 1 4
139 1 2
140 1 1
141 1 1
142 1 3
143 1 2
144 1 4
145 1 1
146 1 1
147 1 1
149 1 1
150 1 3
152 1 3
153 1 1
154 1 3
155 1 2
156 1 2
159 1 3
160 1 2
161 1 1
163 1 1
164 1 3
165 1 4
166 1 2
167 1 2
173 1 1
174 1 2
175 1 1
176 1 3
177 1 1
179 1 2
180 1 2
181 1 2
182 1 1
183 1 2
184 1 2
185 1 4
186 1 2
187 1 2
188 1 3
189 1 5
190 1 5
192 1 1
193 1 2
194 1 6
195 1 2
196 1 1
197 1 2
198 1 1
199 1 1
200 1 3
201 1 3
202 1 2
203 1 3
204 1 3
205 1 2
207 1 1
208 1 2
209 1 1
210 1 2
211 1 2
212 1 4
214 1 1
215 1 3
216 1 2
217 1 5
218 1 1
219 1 2
220 1 2
221 1 3
222 1 3
223 1 6
224 1 1
225 1 1
226 1 6
227 1 3
228 1 1
229 1 1
230 1 2
232 1 2
234 1 3
235 1 2
236 1 1
237 1 1
238 1 9
240 1 4
241 1 3
242 1 1
243 1 2
245 1 1
246 1 4
247 1 3
248 1 4
249 1 1
250 1 3
251 1 2
252 1 2
253 1 5
254 1 3
255 1 2
256 1 2
257 1 5
258 1 5
260 1 2
261 1 2
262 1 2
263 1 3
265 1 4
